%nprocshared=8
%mem=1GB
%chk=CF2-c1-1sp.chk
#p b3lyp/6-311+g(2d,p) pop=(full,nboread) stable=opt

CF2-c1-1sp 1

0 2
 C                 -0.03042600    0.50786100    0.00000000
 H                  0.73021200    1.29291500   -0.00000000
 F                 -0.03042600   -0.24111500    1.10362000
 F                 -0.03042600   -0.24111500   -1.10362000

$nbo bndidx $end 

