%nprocshared=8
%mem=1GB
%chk=ipr-c1-1sp.chk
#p b3lyp/6-311+g(2d,p) pop=(full,nboread) stable=opt

ipr-c1-1sp 1

0 2
 C                  0.00000000    0.53168900   -0.05304100
 H                  0.00000500    1.60549500    0.12076900
 C                  1.30117700   -0.19767500    0.00371600
 H                  1.52827500   -0.57028700    1.02009100
 H                  1.29731500   -1.08152100   -0.65002400
 H                  2.14149200    0.44003900   -0.29362400
 C                 -1.30117800   -0.19767300    0.00371600
 H                 -1.29736300   -1.08144800   -0.65012200
 H                 -1.52821100   -0.57040300    1.02006300
 H                 -2.14150700    0.44007800   -0.29350100

$nbo bndidx $end 

