%nprocshared=8
%mem=1GB
%chk=Ph-c1-1sp.chk
#p b3lyp/6-311+g(2d,p) pop=(full,nboread) stable=opt

Ph-c1-1sp 1

0 2
 C                 -0.00001000    1.39287700    0.00000400
 C                  1.22179200    0.76966200    0.00001200
 C                 -1.22178300    0.76968000   -0.00001700
 C                 -1.20998800   -0.63032400    0.00000900
 C                 -0.00000900   -1.31978100    0.00000300
 C                  1.21000000   -0.63029900   -0.00001500
 H                  2.15508300    1.32054700    0.00001400
 H                 -2.15510500    1.32051300   -0.00000500
 H                 -2.14806900   -1.17441200    0.00002000
 H                  0.00002100   -2.40310600    0.00000600
 H                  2.14805400   -1.17443300   -0.00001700

$nbo bndidx $end 

