%nprocshared=8
%mem=1GB
%chk=tBu-c1-1sp.chk
#p b3lyp/6-311+g(2d,p) pop=(full,nboread) stable=opt

tBu-c1-1sp 1

0 2
 C                 -0.00002400   -0.00008200   -0.15438800
 C                  0.24225700    1.46308000    0.01521700
 H                  1.19114500    1.77260600   -0.43222600
 H                 -0.55747000    2.06158800   -0.43032600
 H                  0.29089600    1.74994300    1.08058400
 C                  1.14618900   -0.94131500    0.01515900
 H                  0.93820500   -1.91916100   -0.42846700
 H                  2.06330400   -0.54981900   -0.43425900
 H                  1.37334700   -1.12326500    1.08050500
 C                 -1.38844500   -0.52177800    0.01514400
 H                 -2.13053600    0.14465700   -0.43375600
 H                 -1.50657100   -1.51415600   -0.42926000
 H                 -1.66218000   -0.62182500    1.08040800

$nbo bndidx $end 

