%nprocshared=8
%mem=1GB
%chk=TF3-c1-1sp.chk
#p b3lyp/6-311+g(2d,p) pop=(full,nboread) stable=opt

TF3-c1-1sp 1

0 2
 C                  2.11767800   -0.06248100    0.00002300
 H                  2.53360700   -0.42660300   -0.92848300
 H                  2.53493300   -0.42237300    0.92957900
 C                  0.90316100    0.79638100   -0.00110900
 H                  0.86632100    1.43753500   -0.88558100
 H                  0.86639300    1.44001100    0.88154500
 C                 -0.40127100    0.01108400   -0.00000200
 F                 -1.46758600    0.84153600   -0.00149800
 F                 -0.51710200   -0.78357200   -1.08464400
 F                 -0.51738600   -0.78001700    1.08719300

$nbo bndidx $end 

